;; sequence(s): A292344
;; terms: 68 212 420 692 1028 1428 1892 2420 3012 3668 4388 5172 6020 6932 7908 8948 10052 11220 12452 13748
;; small program: loop2(loop(1 + (x + x), 2, y) * x, 2 + y, 2, 2, x) + 2
;; fast program: (1 + (2 * (2 * ((2 * ((1 + x) * (2 + x))) + x)))) * (2 + 2)
(set-logic UFNIA)
(declare-fun f1 (Int) Int)
(declare-fun g1 () Int)
(declare-fun h1 (Int Int) Int)
(declare-fun u1 (Int Int) Int)
(declare-fun v1 (Int Int) Int)
(declare-fun f0 (Int Int) Int)
(declare-fun g0 (Int Int) Int)
(declare-fun h0 () Int)
(declare-fun i0 () Int)
(declare-fun j0 (Int) Int)
(declare-fun u0 (Int Int Int) Int)
(declare-fun v0 (Int Int Int) Int)
(declare-fun w0 (Int) Int)
(declare-fun small (Int) Int)
(declare-fun fast (Int) Int)
(assert (forall ((x Int)) (= (f1 x) (+ 1 (+ x x)))))
(assert (= g1 2))
(assert (forall ((x Int) (y Int)) (= (h1 x y) y)))
(assert (forall ((x Int) (y Int)) (= (u1 x y) (ite (<= x 0) y (f1 (u1 (- x 1) y))))))
(assert (forall ((x Int) (y Int)) (= (v1 x y) (u1 g1 (h1 x y)))))
(assert (forall ((x Int) (y Int)) (= (f0 x y) (* (v1 x y) x))))
(assert (forall ((x Int) (y Int)) (= (g0 x y) (+ 2 y))))
(assert (= h0 2))
(assert (= i0 2))
(assert (forall ((x Int)) (= (j0 x) x)))
(assert (forall ((x Int) (y Int) (z Int)) (= (u0 x y z) (ite (<= x 0) y (f0 (u0 (- x 1) y z) (v0 (- x 1) y z))))))
(assert (forall ((x Int) (y Int) (z Int)) (= (v0 x y z) (ite (<= x 0) z (g0 (u0 (- x 1) y z) (v0 (- x 1) y z))))))
(assert (forall ((x Int)) (= (w0 x) (u0 h0 i0 (j0 x)))))
(assert (forall ((x Int)) (= (small x) (+ (w0 x) 2))))
(assert (forall ((x Int)) (= (fast x) (* (+ 1 (* 2 (* 2 (+ (* 2 (* (+ 1 x) (+ 2 x))) x)))) (+ 2 2)))))
(assert (exists ((c Int)) (and (>= c 0) (not (= (small c) (fast c))))))
(check-sat)
